(set-info :status sat)
(declare-const symbol_71 (_ BitVec 32))
(declare-const symbol_55 (_ BitVec 32))
(declare-const symbol_68 (_ BitVec 32))
(declare-const symbol_35 (_ BitVec 32))
(declare-const symbol_25 (_ BitVec 32))
(declare-const symbol_27 (_ BitVec 32))
(declare-const symbol_91 (_ BitVec 32))
(declare-const symbol_58 (_ BitVec 32))
(declare-const symbol_17 (_ BitVec 32))
(declare-const symbol_33 (_ BitVec 32))
(declare-const symbol_54 (_ BitVec 32))
(declare-const symbol_49 (_ BitVec 32))
(declare-const symbol_85 (_ BitVec 32))
(declare-const symbol_77 (_ BitVec 32))
(declare-const symbol_4 (_ BitVec 32))
(declare-const symbol_29 (_ BitVec 32))
(declare-const symbol_23 (_ BitVec 32))
(declare-const symbol_15 (_ BitVec 32))
(declare-const symbol_0 (_ BitVec 32))
(declare-const symbol_9 (_ BitVec 32))
(declare-const symbol_64 (_ BitVec 32))
(declare-const symbol_11 (_ BitVec 32))
(declare-const symbol_46 (_ BitVec 32))
(declare-const symbol_38 (_ BitVec 32))
(declare-const symbol_74 (_ BitVec 32))
(declare-const symbol_72 (_ BitVec 32))
(declare-const symbol_41 (_ BitVec 32))
(declare-const symbol_83 (_ BitVec 32))
(declare-const symbol_79 (_ BitVec 32))
(declare-const symbol_62 (_ BitVec 32))
(declare-const symbol_66 (_ BitVec 32))
(declare-const symbol_37 (_ BitVec 32))
(declare-const symbol_21 (_ BitVec 32))
(declare-const symbol_19 (_ BitVec 32))
(declare-const symbol_88 (_ BitVec 32))
(declare-const symbol_43 (_ BitVec 32))
(declare-const symbol_93 (_ BitVec 32))
(declare-const symbol_2 (_ BitVec 32))
(declare-const symbol_51 (_ BitVec 32))
(declare-const symbol_31 (_ BitVec 32))
(declare-const symbol_13 (_ BitVec 32))
(declare-const symbol_7 (_ BitVec 32))
(declare-const symbol_59 (_ BitVec 32))
(declare-const symbol_81 (_ BitVec 32))
(declare-const symbol_5 (_ BitVec 32))
(declare-const symbol_87 (_ BitVec 32))
(declare-const symbol_48 (_ BitVec 32))
(assert (not (= symbol_93 (_ bv3 32))))
(assert (not (not (= symbol_93 (_ bv1 32)))))
(assert (not (not (= symbol_91 (_ bv1 32)))))
(assert (not (not (= symbol_88 (_ bv1 32)))))
(assert (not (not (= symbol_87 (_ bv1 32)))))
(assert (not (not (= symbol_85 (_ bv1 32)))))
(assert (not (not (= symbol_83 (_ bv1 32)))))
(assert (not (not (= symbol_81 (_ bv1 32)))))
(assert (not (not (= symbol_79 (_ bv1 32)))))
(assert (not (not (= symbol_77 (_ bv1 32)))))
(assert (not (not (= symbol_74 (_ bv1 32)))))
(assert (not (not (= symbol_72 (_ bv1 32)))))
(assert (not (not (= symbol_71 (_ bv1 32)))))
(assert (not (not (= symbol_68 (_ bv1 32)))))
(assert (not (not (= symbol_66 (_ bv1 32)))))
(assert (not (not (= symbol_64 (_ bv1 32)))))
(assert (not (not (= symbol_62 (_ bv1 32)))))
(assert (not (not (= symbol_59 (_ bv1 32)))))
(assert (not (not (= symbol_58 (_ bv1 32)))))
(assert (not (not (= symbol_55 (_ bv1 32)))))
(assert (not (not (= symbol_54 (_ bv1 32)))))
(assert (not (not (= symbol_51 (_ bv1 32)))))
(assert (not (not (= symbol_49 (_ bv1 32)))))
(assert (not (not (= symbol_48 (_ bv1 32)))))
(assert (not (not (= symbol_46 (_ bv1 32)))))
(assert (not (not (= symbol_43 (_ bv1 32)))))
(assert (not (not (= symbol_41 (_ bv1 32)))))
(assert (not (not (= symbol_38 (_ bv1 32)))))
(assert (not (not (= symbol_37 (_ bv1 32)))))
(assert (not (not (= symbol_35 (_ bv1 32)))))
(assert (not (not (= symbol_33 (_ bv1 32)))))
(assert (not (not (= symbol_31 (_ bv1 32)))))
(assert (not (not (= symbol_29 (_ bv1 32)))))
(assert (not (not (= symbol_27 (_ bv1 32)))))
(assert (not (not (= symbol_25 (_ bv1 32)))))
(assert (not (not (= symbol_23 (_ bv1 32)))))
(assert (not (not (= symbol_21 (_ bv1 32)))))
(assert (not (not (= symbol_19 (_ bv1 32)))))
(assert (not (not (= symbol_17 (_ bv1 32)))))
(assert (not (not (= symbol_15 (_ bv1 32)))))
(assert (not (not (= symbol_13 (_ bv1 32)))))
(assert (not (not (= symbol_11 (_ bv1 32)))))
(assert (not (not (= symbol_9 (_ bv1 32)))))
(assert (not (not (= symbol_7 (_ bv1 32)))))
(assert (not (not (= symbol_5 (_ bv1 32)))))
(assert (not (not (= symbol_4 (_ bv1 32)))))
(assert (not (not (= symbol_2 (_ bv1 32)))))
(assert (not (not (= symbol_0 (_ bv8 32)))))
(assert (not (= symbol_0 (_ bv1 32))))
(check-sat)